(declare-const x0 Real)
(assert (<= 0.000010 x0))
(declare-const x1 Real)
(assert (<= 0.000010 x1))
(declare-const x2 Real)
(assert (<= 0.000010 x2))
(declare-const x3 Real)
(assert (<= 0.000010 x3))
(declare-const x4 Real)
(assert (<= 0.000010 x4))
(declare-const x5 Real)
(assert (<= 3.0 x5))
(declare-const x6 Real)
(assert (<= 1.200000 x6))
(declare-const x7 Real)
(assert (<= 90.0 x7))
(declare-const x8 Real)
(assert (<= 85.0 x8))
(declare-const x9 Real)
(assert (<= 145.0 x9))

(assert (<= 0.0 (+ (* (- 0.990000) x0) (* 1.120000 x1) (- (* (* 0.131670 x1) x5) (* (* 0.006670 x1) (^ x5 2.0))))))
(assert (<= (- 57.425000) (+ (* 1.098000 x5) (* (- 0.990000) x7) (* 0.325000 x8) (* (- 0.038000) (^ x5 2.0)))))
(assert (<= 0.0 (+ (* 1.010101 x0) (* (- 1.120000) x1) (- (- (* (* 0.131670 x1) x5) (* (* 0.006670 x1) (^ x5 2.0)))))))
(assert (<= 57.425000 (+ (* (- 1.098000) x5) (* 1.010101 x7) (* (- 0.325000) x8) (- (* (- 0.038000) (^ x5 2.0))))))
(assert (= (+ (* (- 1.0) x8) (/ (* 98000.0 x3) (+ (* x0 x6) (* 1000.0 x3)))) 0.0))
(assert (= (+ (* (- 1.0) x5) (/ (+ x2 x4) x1)) 0.0))
(assert (<= (- 35.820000) (+ (* (- 0.900000) x6) (* (- 0.222000) x9))))
(assert (<= 133.0 (+ (* 3.0 x7) (* (- 0.990000) x9))))
(assert (<= 35.820000 (+ (* 1.111111 x6) (* 0.222000 x9))))
(assert (<= (- 133.0) (+ (* (- 3.0) x7) (* 1.010101 x9))))
(assert (= (+ (* 1.220000 x0) (* (- 1.0) x1) (* (- 1.0) x4)) 0.0))

(minimize
	(+ (* 5.040000 x1) (* 0.035000 x2) (* 10.0 x3) (* 3.360000 x4) (- (* (* 0.063000 x0) x7)))
)
(check-sat)
(get-objectives)
(exit)

